Minimize
	value: tt

Subject to
tt + 1000 s_1_1 > 0
tt - t_1_1 - 1180.618600 s_1_1 + 180.618600 s_1_8 > -959.816856
tt + 1000 s_2_1 > 0
tt - t_2_1 - 1361.237200 s_2_1 + 361.237200 s_2_8 > -955.520500
tt + 1000 s_1_2 > 0
tt - t_1_2 - 1045.154650 s_1_2 + 45.154650 s_1_7 > -959.557333
tt + 1000 s_2_2 > 0
tt - t_2_2 - 1090.309300 s_2_2 + 90.309300 s_2_7 > -955.569700
tt + 1000 s_1_3 > 0
tt - t_1_3 - 1100.856529 s_1_3 + 100.856529 s_1_8 > -993.958122
tt + 1000 s_2_3 > 0
tt - t_2_3 - 1201.713059 s_2_3 + 201.713059 s_2_8 > -993.768000
tt + 1000 s_1_4 > 0
tt - t_1_4 - 1045.154650 s_1_4 + 45.154650 s_1_7 > -988.308500
tt + 1000 s_2_4 > 0
tt - t_2_4 - 1090.309300 s_2_4 + 90.309300 s_2_7 > -990.220400
tt + 1000 s_1_5 > 0
tt - t_1_5 - 1045.154650 s_1_5 + 45.154650 s_1_8 > -982.252500
tt + 1000 s_2_5 > 0
tt - t_2_5 - 1090.309300 s_2_5 + 90.309300 s_2_8 > -978.291000
tt + 1000 s_1_7 > 0
tt - t_1_7 - 1000.000000 s_1_7 > -946.596400
tt + 1000 s_2_7 > 0
tt - t_2_7 - 1000.000000 s_2_7 > -953.509100
tt + 1000 s_1_8 > 0
tt - t_1_8 - 1000.000000 s_1_8 > -949.568700
tt + 1000 s_2_8 > 0
tt - t_2_8 - 1000.000000 s_2_8 > -955.358500
s_1_1 + s_2_1  = 1
s_1_2 + s_2_2  = 1
s_1_3 + s_2_3  = 1
s_1_4 + s_2_4  = 1
s_1_5 + s_2_5  = 1
s_1_7 + s_2_7  = 1
s_1_8 + s_2_8  = 1
t_1_1 - t_1_2 + 1000.000000 u_1_1_2 - 45.154650 s_1_2 + 45.154650 s_1_7 > 40.442667
t_1_2 - t_1_1 - 1000.000000 u_1_1_2 > -959.816856
t_2_1 - t_2_2 + 1000.000000 u_2_1_2 - 90.309300 s_2_2 + 90.309300 s_2_7 > 44.430300
t_2_2 - t_2_1 - 1000.000000 u_2_1_2 > -955.520500
t_1_1 - t_1_3 + 1000.000000 u_1_1_3 - 50.428265 s_1_3 + 50.428265 s_1_8 > 6.041878
t_1_3 - t_1_1 - 1000.000000 u_1_1_3 > -959.816856
t_2_1 - t_2_3 + 1000.000000 u_2_1_3 - 100.856529 s_2_3 + 100.856529 s_2_8 > 6.232000
t_2_3 - t_2_1 - 1000.000000 u_2_1_3 > -955.520500
t_1_1 - t_1_4 + 1000.000000 u_1_1_4 - 45.154650 s_1_4 + 45.154650 s_1_7 > 11.691500
t_1_4 - t_1_1 - 1000.000000 u_1_1_4 > -959.816856
t_2_1 - t_2_4 + 1000.000000 u_2_1_4 - 90.309300 s_2_4 + 90.309300 s_2_7 > 9.779600
t_2_4 - t_2_1 - 1000.000000 u_2_1_4 > -955.520500
t_1_1 - t_1_5 + 1000.000000 u_1_1_5 - 45.154650 s_1_5 + 45.154650 s_1_8 > 17.747500
t_1_5 - t_1_1 - 1000.000000 u_1_1_5 > -959.816856
t_2_1 - t_2_5 + 1000.000000 u_2_1_5 - 90.309300 s_2_5 + 90.309300 s_2_8 > 21.709000
t_2_5 - t_2_1 - 1000.000000 u_2_1_5 > -955.520500
t_1_1 - t_1_7 - 1000.000000 s_1_7 > -914.954712
t_1_1 - t_2_7 - 1000.000000 s_2_7 > -890.225724
t_2_1 - t_1_7 - 1000.000000 s_1_7 > -914.954712
t_2_1 - t_2_7 - 1000.000000 s_2_7 > -890.225724
t_1_1 - t_1_8 - 1000.000000 s_1_8 > -917.927012
t_1_1 - t_2_8 - 1000.000000 s_2_8 > -892.075124
t_2_1 - t_1_8 - 1000.000000 s_1_8 > -917.927012
t_2_1 - t_2_8 - 1000.000000 s_2_8 > -892.075124
t_1_2 - t_1_1 + 1000.000000 u_1_2_1 - 90.309300 s_1_1 + 90.309300 s_1_8 > 40.183144
t_1_1 - t_1_2 - 1000.000000 u_1_2_1 > -959.557333
t_2_2 - t_2_1 + 1000.000000 u_2_2_1 - 180.618600 s_2_1 + 180.618600 s_2_8 > 44.479500
t_2_1 - t_2_2 - 1000.000000 u_2_2_1 > -955.569700
t_1_2 - t_1_3 + 1000.000000 u_1_2_3 - 50.428265 s_1_3 + 50.428265 s_1_8 > 6.041878
t_1_3 - t_1_2 - 1000.000000 u_1_2_3 > -959.557333
t_2_2 - t_2_3 + 1000.000000 u_2_2_3 - 100.856529 s_2_3 + 100.856529 s_2_8 > 6.232000
t_2_3 - t_2_2 - 1000.000000 u_2_2_3 > -955.569700
t_1_2 - t_1_4 + 1000.000000 u_1_2_4 - 45.154650 s_1_4 + 45.154650 s_1_7 > 11.691500
t_1_4 - t_1_2 - 1000.000000 u_1_2_4 > -959.557333
t_2_2 - t_2_4 + 1000.000000 u_2_2_4 - 90.309300 s_2_4 + 90.309300 s_2_7 > 9.779600
t_2_4 - t_2_2 - 1000.000000 u_2_2_4 > -955.569700
t_1_2 - t_1_5 + 1000.000000 u_1_2_5 - 45.154650 s_1_5 + 45.154650 s_1_8 > 17.747500
t_1_5 - t_1_2 - 1000.000000 u_1_2_5 > -959.557333
t_2_2 - t_2_5 + 1000.000000 u_2_2_5 - 90.309300 s_2_5 + 90.309300 s_2_8 > 21.709000
t_2_5 - t_2_2 - 1000.000000 u_2_2_5 > -955.569700
t_1_2 - t_1_7 - 1000.000000 s_1_7 > -914.954712
t_1_2 - t_2_7 - 1000.000000 s_2_7 > -890.225724
t_2_2 - t_1_7 - 1000.000000 s_1_7 > -914.954712
t_2_2 - t_2_7 - 1000.000000 s_2_7 > -890.225724
t_1_2 - t_1_8 + 1000.000000 u_1_2_8 > 50.431300
t_1_8 - t_1_2 - 1000.000000 u_1_2_8 > -959.557333
t_2_2 - t_2_8 + 1000.000000 u_2_2_8 > 44.641500
t_2_8 - t_2_2 - 1000.000000 u_2_2_8 > -955.569700
t_1_3 - t_1_1 + 1000.000000 u_1_3_1 - 90.309300 s_1_1 + 90.309300 s_1_8 > 40.183144
t_1_1 - t_1_3 - 1000.000000 u_1_3_1 > -993.958122
t_2_3 - t_2_1 + 1000.000000 u_2_3_1 - 180.618600 s_2_1 + 180.618600 s_2_8 > 44.479500
t_2_1 - t_2_3 - 1000.000000 u_2_3_1 > -993.768000
t_1_3 - t_1_2 + 1000.000000 u_1_3_2 - 45.154650 s_1_2 + 45.154650 s_1_7 > 40.442667
t_1_2 - t_1_3 - 1000.000000 u_1_3_2 > -993.958122
t_2_3 - t_2_2 + 1000.000000 u_2_3_2 - 90.309300 s_2_2 + 90.309300 s_2_7 > 44.430300
t_2_2 - t_2_3 - 1000.000000 u_2_3_2 > -993.768000
t_1_3 - t_1_4 + 1000.000000 u_1_3_4 - 45.154650 s_1_4 + 45.154650 s_1_7 > 11.691500
t_1_4 - t_1_3 - 1000.000000 u_1_3_4 > -993.958122
t_2_3 - t_2_4 + 1000.000000 u_2_3_4 - 90.309300 s_2_4 + 90.309300 s_2_7 > 9.779600
t_2_4 - t_2_3 - 1000.000000 u_2_3_4 > -993.768000
t_1_3 - t_1_5 + 1000.000000 u_1_3_5 - 45.154650 s_1_5 + 45.154650 s_1_8 > 17.747500
t_1_5 - t_1_3 - 1000.000000 u_1_3_5 > -993.958122
t_2_3 - t_2_5 + 1000.000000 u_2_3_5 - 90.309300 s_2_5 + 90.309300 s_2_8 > 21.709000
t_2_5 - t_2_3 - 1000.000000 u_2_3_5 > -993.768000
t_1_3 - t_1_7 - 1000.000000 s_1_7 > -914.954712
t_1_3 - t_2_7 - 1000.000000 s_2_7 > -890.225724
t_2_3 - t_1_7 - 1000.000000 s_1_7 > -914.954712
t_2_3 - t_2_7 - 1000.000000 s_2_7 > -890.225724
t_1_3 - t_1_8 - 1000.000000 s_1_8 > -917.927012
t_1_3 - t_2_8 - 1000.000000 s_2_8 > -892.075124
t_2_3 - t_1_8 - 1000.000000 s_1_8 > -917.927012
t_2_3 - t_2_8 - 1000.000000 s_2_8 > -892.075124
t_1_4 - t_1_1 + 1000.000000 u_1_4_1 - 90.309300 s_1_1 + 90.309300 s_1_8 > 40.183144
t_1_1 - t_1_4 - 1000.000000 u_1_4_1 > -988.308500
t_2_4 - t_2_1 + 1000.000000 u_2_4_1 - 180.618600 s_2_1 + 180.618600 s_2_8 > 44.479500
t_2_1 - t_2_4 - 1000.000000 u_2_4_1 > -990.220400
t_1_4 - t_1_2 + 1000.000000 u_1_4_2 - 45.154650 s_1_2 + 45.154650 s_1_7 > 40.442667
t_1_2 - t_1_4 - 1000.000000 u_1_4_2 > -988.308500
t_2_4 - t_2_2 + 1000.000000 u_2_4_2 - 90.309300 s_2_2 + 90.309300 s_2_7 > 44.430300
t_2_2 - t_2_4 - 1000.000000 u_2_4_2 > -990.220400
t_1_4 - t_1_3 + 1000.000000 u_1_4_3 - 50.428265 s_1_3 + 50.428265 s_1_8 > 6.041878
t_1_3 - t_1_4 - 1000.000000 u_1_4_3 > -988.308500
t_2_4 - t_2_3 + 1000.000000 u_2_4_3 - 100.856529 s_2_3 + 100.856529 s_2_8 > 6.232000
t_2_3 - t_2_4 - 1000.000000 u_2_4_3 > -990.220400
t_1_4 - t_1_5 + 1000.000000 u_1_4_5 - 45.154650 s_1_5 + 45.154650 s_1_8 > 17.747500
t_1_5 - t_1_4 - 1000.000000 u_1_4_5 > -988.308500
t_2_4 - t_2_5 + 1000.000000 u_2_4_5 - 90.309300 s_2_5 + 90.309300 s_2_8 > 21.709000
t_2_5 - t_2_4 - 1000.000000 u_2_4_5 > -990.220400
t_1_4 - t_1_7 - 1000.000000 s_1_7 > -914.954712
t_1_4 - t_2_7 - 1000.000000 s_2_7 > -890.225724
t_2_4 - t_1_7 - 1000.000000 s_1_7 > -914.954712
t_2_4 - t_2_7 - 1000.000000 s_2_7 > -890.225724
t_1_4 - t_1_8 + 1000.000000 u_1_4_8 > 50.431300
t_1_8 - t_1_4 - 1000.000000 u_1_4_8 > -988.308500
t_2_4 - t_2_8 + 1000.000000 u_2_4_8 > 44.641500
t_2_8 - t_2_4 - 1000.000000 u_2_4_8 > -990.220400
t_1_5 - t_1_1 + 1000.000000 u_1_5_1 - 90.309300 s_1_1 + 90.309300 s_1_8 > 40.183144
t_1_1 - t_1_5 - 1000.000000 u_1_5_1 > -982.252500
t_2_5 - t_2_1 + 1000.000000 u_2_5_1 - 180.618600 s_2_1 + 180.618600 s_2_8 > 44.479500
t_2_1 - t_2_5 - 1000.000000 u_2_5_1 > -978.291000
t_1_5 - t_1_2 + 1000.000000 u_1_5_2 - 45.154650 s_1_2 + 45.154650 s_1_7 > 40.442667
t_1_2 - t_1_5 - 1000.000000 u_1_5_2 > -982.252500
t_2_5 - t_2_2 + 1000.000000 u_2_5_2 - 90.309300 s_2_2 + 90.309300 s_2_7 > 44.430300
t_2_2 - t_2_5 - 1000.000000 u_2_5_2 > -978.291000
t_1_5 - t_1_3 + 1000.000000 u_1_5_3 - 50.428265 s_1_3 + 50.428265 s_1_8 > 6.041878
t_1_3 - t_1_5 - 1000.000000 u_1_5_3 > -982.252500
t_2_5 - t_2_3 + 1000.000000 u_2_5_3 - 100.856529 s_2_3 + 100.856529 s_2_8 > 6.232000
t_2_3 - t_2_5 - 1000.000000 u_2_5_3 > -978.291000
t_1_5 - t_1_4 + 1000.000000 u_1_5_4 - 45.154650 s_1_4 + 45.154650 s_1_7 > 11.691500
t_1_4 - t_1_5 - 1000.000000 u_1_5_4 > -982.252500
t_2_5 - t_2_4 + 1000.000000 u_2_5_4 - 90.309300 s_2_4 + 90.309300 s_2_7 > 9.779600
t_2_4 - t_2_5 - 1000.000000 u_2_5_4 > -978.291000
t_1_5 - t_1_7 + 1000.000000 u_1_5_7 > 53.403600
t_1_7 - t_1_5 - 1000.000000 u_1_5_7 > -982.252500
t_2_5 - t_2_7 + 1000.000000 u_2_5_7 > 46.490900
t_2_7 - t_2_5 - 1000.000000 u_2_5_7 > -978.291000
t_1_5 - t_1_8 - 1000.000000 s_1_8 > -917.927012
t_1_5 - t_2_8 - 1000.000000 s_2_8 > -892.075124
t_2_5 - t_1_8 - 1000.000000 s_1_8 > -917.927012
t_2_5 - t_2_8 - 1000.000000 s_2_8 > -892.075124
t_1_1 - t_1_7 - 1000.000000 s_1_7 > -914.954712
t_1_1 - t_2_7 - 1000.000000 s_2_7 > -890.225724
t_2_1 - t_1_7 - 1000.000000 s_1_7 > -914.954712
t_2_1 - t_2_7 - 1000.000000 s_2_7 > -890.225724
t_1_2 - t_1_7 - 1000.000000 s_1_7 > -914.954712
t_1_2 - t_2_7 - 1000.000000 s_2_7 > -890.225724
t_2_2 - t_1_7 - 1000.000000 s_1_7 > -914.954712
t_2_2 - t_2_7 - 1000.000000 s_2_7 > -890.225724
t_1_3 - t_1_7 - 1000.000000 s_1_7 > -914.954712
t_1_3 - t_2_7 - 1000.000000 s_2_7 > -890.225724
t_2_3 - t_1_7 - 1000.000000 s_1_7 > -914.954712
t_2_3 - t_2_7 - 1000.000000 s_2_7 > -890.225724
t_1_4 - t_1_7 - 1000.000000 s_1_7 > -914.954712
t_1_4 - t_2_7 - 1000.000000 s_2_7 > -890.225724
t_2_4 - t_1_7 - 1000.000000 s_1_7 > -914.954712
t_2_4 - t_2_7 - 1000.000000 s_2_7 > -890.225724
t_1_7 - t_1_5 + 1000.000000 u_1_7_5 - 45.154650 s_1_5 + 45.154650 s_1_8 > 17.747500
t_1_5 - t_1_7 - 1000.000000 u_1_7_5 > -946.596400
t_2_7 - t_2_5 + 1000.000000 u_2_7_5 - 90.309300 s_2_5 + 90.309300 s_2_8 > 21.709000
t_2_5 - t_2_7 - 1000.000000 u_2_7_5 > -953.509100
t_1_7 - t_1_8 + 1000.000000 u_1_7_8 > 50.431300
t_1_8 - t_1_7 - 1000.000000 u_1_7_8 > -946.596400
t_2_7 - t_2_8 + 1000.000000 u_2_7_8 > 44.641500
t_2_8 - t_2_7 - 1000.000000 u_2_7_8 > -953.509100
t_1_1 - t_1_8 - 1000.000000 s_1_8 > -917.927012
t_1_1 - t_2_8 - 1000.000000 s_2_8 > -892.075124
t_2_1 - t_1_8 - 1000.000000 s_1_8 > -917.927012
t_2_1 - t_2_8 - 1000.000000 s_2_8 > -892.075124
t_1_8 - t_1_2 + 1000.000000 u_1_8_2 - 45.154650 s_1_2 + 45.154650 s_1_7 > 40.442667
t_1_2 - t_1_8 - 1000.000000 u_1_8_2 > -949.568700
t_2_8 - t_2_2 + 1000.000000 u_2_8_2 - 90.309300 s_2_2 + 90.309300 s_2_7 > 44.430300
t_2_2 - t_2_8 - 1000.000000 u_2_8_2 > -955.358500
t_1_3 - t_1_8 - 1000.000000 s_1_8 > -917.927012
t_1_3 - t_2_8 - 1000.000000 s_2_8 > -892.075124
t_2_3 - t_1_8 - 1000.000000 s_1_8 > -917.927012
t_2_3 - t_2_8 - 1000.000000 s_2_8 > -892.075124
t_1_8 - t_1_4 + 1000.000000 u_1_8_4 - 45.154650 s_1_4 + 45.154650 s_1_7 > 11.691500
t_1_4 - t_1_8 - 1000.000000 u_1_8_4 > -949.568700
t_2_8 - t_2_4 + 1000.000000 u_2_8_4 - 90.309300 s_2_4 + 90.309300 s_2_7 > 9.779600
t_2_4 - t_2_8 - 1000.000000 u_2_8_4 > -955.358500
t_1_5 - t_1_8 - 1000.000000 s_1_8 > -917.927012
t_1_5 - t_2_8 - 1000.000000 s_2_8 > -892.075124
t_2_5 - t_1_8 - 1000.000000 s_1_8 > -917.927012
t_2_5 - t_2_8 - 1000.000000 s_2_8 > -892.075124
t_1_8 - t_1_7 + 1000.000000 u_1_8_7 > 53.403600
t_1_7 - t_1_8 - 1000.000000 u_1_8_7 > -949.568700
t_2_8 - t_2_7 + 1000.000000 u_2_8_7 > 46.490900
t_2_7 - t_2_8 - 1000.000000 u_2_8_7 > -955.358500
Binary
s_1_1
s_2_1
s_1_2
s_2_2
s_1_3
s_2_3
s_1_4
s_2_4
s_1_5
s_2_5
s_1_7
s_2_7
s_1_8
s_2_8
u_1_1_2
u_2_1_2
u_1_1_3
u_2_1_3
u_1_1_4
u_2_1_4
u_1_1_5
u_2_1_5
u_1_2_1
u_2_2_1
u_1_2_3
u_2_2_3
u_1_2_4
u_2_2_4
u_1_2_5
u_2_2_5
u_1_2_8
u_2_2_8
u_1_3_1
u_2_3_1
u_1_3_2
u_2_3_2
u_1_3_4
u_2_3_4
u_1_3_5
u_2_3_5
u_1_4_1
u_2_4_1
u_1_4_2
u_2_4_2
u_1_4_3
u_2_4_3
u_1_4_5
u_2_4_5
u_1_4_8
u_2_4_8
u_1_5_1
u_2_5_1
u_1_5_2
u_2_5_2
u_1_5_3
u_2_5_3
u_1_5_4
u_2_5_4
u_1_5_7
u_2_5_7
u_1_7_5
u_2_7_5
u_1_7_8
u_2_7_8
u_1_8_2
u_2_8_2
u_1_8_4
u_2_8_4
u_1_8_7
u_2_8_7

End
